NAME : bays29Preorder.634.tour
COMMENT : Length = 634
COMMENT : Found by LKH [Keld Helsgaun] Thu Apr 23 21:16:22 2020
TYPE : TOUR
DIMENSION : 29
TOUR_SECTION
1
28
6
12
9
5
26
29
3
2
20
10
4
15
18
17
14
22
11
19
25
7
23
27
8
24
16
13
21
-1
EOF
